# MoS2 En una caja
# Definiremos primero la celda unidad con la que vamos a trabajar
acell 6.03 6.03 32.97    # Con acell definimos el tamaño de los vectores primitivos, mide en Borhs

# Definiremos ahora los tipos de átomos y llamaremos a los psudopotenciales
ntypat 2          # Dos tipos de átomo
znucl 42 16       # Número atómico de los dos tipos de átomos 
pseudos "Mo.psp8, S.psp8" #pseudopotenciales utilizados

# Definimos los átomos
natom 3           # Triatómica
typat 1 2 2       # Un Mo y dos S
rprim sqrt(3/4) -0.5 0
      sqrt(3/4)  0.5 0
      0 0 1

xred 0 0 0
     1/3 1/3 -0.098
     1/3 1/3 0.098

# Parámetros de cálculo
ecut 20.0         # Energía del cut en hatree
kptopt 0          # Puntos k
nkpt 1        

# A partir de aquí copiado del tutorial
#Parameters for the SCF procedure
nstep 30          # Número de ciclos
toldfe 1.0d-6     # Tolerancia utilizadada, hará que el programa pare 
                  # una vez se haya obtenido una evaluación de la energía total 
                  # que difiera de la anterior menos que el toldfe (en Hartree) 
                  # El valor tomado es, tal vez, demasiado grande para la mayoría
diemac 2.0        # de los materiales, pero no supondrá un peso mucho mayor a nivel
                  # de computación. El diemac nos habla del modelo dieléctrico
                  # tomaremos este valor estandar
                  # puesto que es el valor descrito en "dielng"
                  # en el apartado de las variables de entrada.

##############################################################
# This section is used only for regression testing of ABINIT #
##############################################################
#%%<BEGIN TEST_INFO>S
#%% [setup]
#%% executable = abinit
#%% [files]
#%% files_to_test = 
#%%   tbase1_1.abo, tolnlines=  0, tolabs=  0.000e+00, tolrel=  0.000e+00
#%% [paral_info]
#%% max_nprocs = 1
#%% [extra_info]
#%% authors = X. Gonze
#%% keywords = 
#%% description = H2 molecule in a big box
#%%<END TEST_INFO>

