# H2 molecule in a big box
#
# Print the charge density that corresponds to optimized 
# interatomic distance.

prtden 1

#-----------------------------------------------------------------
#What follows is similar to the tbase1_1.in file, except the interatomic distance

#Definition of the unit cell
acell 6.03 6.03 32.97

# Definiremos ahora los tipos de átomos y llamaremos a los psudopotenciales
ntypat 2          # Dos tipos de átomo
znucl 42 16       # Número atómico de los dos tipos de átomos 
pseudos "Mo.psp8, S.psp8"

#Definition of the atoms
natom 3           # There are two atoms
typat 1 2 2         # They both are of type 1, that is, Hydrogen
rprim sqrt(3/4) -0.5 0
      sqrt(3/4)  0.5 0
      0 0 1

xred 0 0 0
     1/3 1/3 -0.098
     1/3 1/3 0.098

#Numerical parameters of the calculation : planewave basis set and k point grid
ecut 20.0         # Maximal plane-wave kinetic energy cut-off, in Hartree
kptopt 0          # Enter the k points manually
nkpt 1            # Only one k point is needed for isolated system,
                  # taken by default to be 0.0 0.0 0.0

#Parameters for the SCF procedure
nstep 20          # Maximal number of SCF cycles
toldfe 1.0d-6     # Will stop when, twice in a row, the difference
                  # between two consecutive evaluations of total energy
                  # differ by less than toldfe (in Hartree)
                  # This value is way too large for most realistic studies of materials
diemac 2.0        # Although this is not mandatory, it is worth to
                  # precondition the SCF cycle. The model dielectric
                  # function used as the standard preconditioner
                  # is described in the "dielng" input variable section.
                  # Here, we follow the prescriptions for molecules
                  # in a big box

##############################################################
# This section is used only for regression testing of ABINIT #
##############################################################
#%%<BEGIN TEST_INFO>
#%% [setup]
#%% executable = abinit
#%% [files]
#%% files_to_test = 
#%%   tbase1_4.abo, tolnlines=  0, tolabs=  0.000e+00, tolrel=  0.000e+00
#%% [paral_info]
#%% max_nprocs = 1
#%% [extra_info]
#%% authors = X. Gonze
#%% keywords = 
#%% description = 
#%%   H2 molecule in a big box
#%%   Print the charge density that corresponds to optimized 
#%%   interatomic distance.
#%%<END TEST_INFO>
