prtden 1

#-----------------------------------------------------------------

#Definimos la celda unidad
acell 6.03 6.03 32.97

# Definiremos ahora los tipos de átomos y llamaremos a los psudopotenciales
ntypat 2          # Dos tipos de átomo
znucl 42 16       # Número atómico de los dos tipos de átomos 
pseudos "Mo.psp8, S.psp8"

#Definimos los átomos
natom 3           # Tenemos 3 átomos
typat 1 2 2         # 2 de azufre y uno de molibdeno
rprim sqrt(3/4) -0.5 0
      sqrt(3/4)  0.5 0
      0 0 1
# Valores de red, obtenidos en los parámetros de red
xred 0 0 0
     1/3 1/3 -0.04
     1/3 1/3 0.04
     
# Parámetros de cálculo numérico
ecut 20.0         # Energía máxima cinética de onda plana, energía de 'cut-off' en Hartree
kptopt 0          # Puntos K
nkpt 1            # Solo tomamos un punto k en el 
                  # 0.0 0.0 0.0

#Parametros para el SCF
nstep 20          # Número máximo de ciclos SCF
toldfe 1.0d-6     # Tolerancia demasiado elevada para la mayoria de
                  # materiales, pero no obstaculiza el cálculo así que se puede tomar
diemac 2.0        

##############################################################
# This section is used only for regression testing of ABINIT #
##############################################################
#%%<BEGIN TEST_INFO>
#%% [setup]
#%% executable = abinit
#%% [files]
#%% files_to_test = 
#%%   tbase1_4.abo, tolnlines=  0, tolabs=  0.000e+00, tolrel=  0.000e+00
#%% [paral_info]
#%% max_nprocs = 1
#%% [extra_info]
#%% authors = X. Gonze
#%% keywords = S
#%% description = 
#%%   H2 molecule in a big box
#%%   Print the charge density that corresponds to optimized 
#%%   interatomic distance.
#%%<END TEST_INFO>
